; benchmark generated from python API
(set-info :status unknown)
(declare-fun cell_1_1 () Int)
(declare-fun cell_2_1 () Int)
(declare-fun cell_3_1 () Int)
(declare-fun cell_4_1 () Int)
(declare-fun cell_5_1 () Int)
(declare-fun cell_6_1 () Int)
(declare-fun cell_7_1 () Int)
(declare-fun cell_8_1 () Int)
(declare-fun cell_9_1 () Int)
(declare-fun cell_1_2 () Int)
(declare-fun cell_2_2 () Int)
(declare-fun cell_3_2 () Int)
(declare-fun cell_4_2 () Int)
(declare-fun cell_5_2 () Int)
(declare-fun cell_6_2 () Int)
(declare-fun cell_7_2 () Int)
(declare-fun cell_8_2 () Int)
(declare-fun cell_9_2 () Int)
(declare-fun cell_1_3 () Int)
(declare-fun cell_2_3 () Int)
(declare-fun cell_3_3 () Int)
(declare-fun cell_4_3 () Int)
(declare-fun cell_5_3 () Int)
(declare-fun cell_6_3 () Int)
(declare-fun cell_7_3 () Int)
(declare-fun cell_8_3 () Int)
(declare-fun cell_9_3 () Int)
(declare-fun cell_1_4 () Int)
(declare-fun cell_2_4 () Int)
(declare-fun cell_3_4 () Int)
(declare-fun cell_4_4 () Int)
(declare-fun cell_5_4 () Int)
(declare-fun cell_6_4 () Int)
(declare-fun cell_7_4 () Int)
(declare-fun cell_8_4 () Int)
(declare-fun cell_9_4 () Int)
(declare-fun cell_1_5 () Int)
(declare-fun cell_2_5 () Int)
(declare-fun cell_3_5 () Int)
(declare-fun cell_4_5 () Int)
(declare-fun cell_5_5 () Int)
(declare-fun cell_6_5 () Int)
(declare-fun cell_7_5 () Int)
(declare-fun cell_8_5 () Int)
(declare-fun cell_9_5 () Int)
(declare-fun cell_1_6 () Int)
(declare-fun cell_2_6 () Int)
(declare-fun cell_3_6 () Int)
(declare-fun cell_4_6 () Int)
(declare-fun cell_5_6 () Int)
(declare-fun cell_6_6 () Int)
(declare-fun cell_7_6 () Int)
(declare-fun cell_8_6 () Int)
(declare-fun cell_9_6 () Int)
(declare-fun cell_1_7 () Int)
(declare-fun cell_2_7 () Int)
(declare-fun cell_3_7 () Int)
(declare-fun cell_4_7 () Int)
(declare-fun cell_5_7 () Int)
(declare-fun cell_6_7 () Int)
(declare-fun cell_7_7 () Int)
(declare-fun cell_8_7 () Int)
(declare-fun cell_9_7 () Int)
(declare-fun cell_1_8 () Int)
(declare-fun cell_2_8 () Int)
(declare-fun cell_3_8 () Int)
(declare-fun cell_4_8 () Int)
(declare-fun cell_5_8 () Int)
(declare-fun cell_6_8 () Int)
(declare-fun cell_7_8 () Int)
(declare-fun cell_8_8 () Int)
(declare-fun cell_9_8 () Int)
(declare-fun cell_1_9 () Int)
(declare-fun cell_2_9 () Int)
(declare-fun cell_3_9 () Int)
(declare-fun cell_4_9 () Int)
(declare-fun cell_5_9 () Int)
(declare-fun cell_6_9 () Int)
(declare-fun cell_7_9 () Int)
(declare-fun cell_8_9 () Int)
(declare-fun cell_9_9 () Int)
(assert
 (let (($x7388 (= cell_1_1 9)))
 (let (($x6715 (= cell_1_1 8)))
 (let (($x7946 (= cell_1_1 7)))
 (let (($x58 (= cell_1_1 6)))
 (let (($x5226 (= cell_1_1 5)))
 (let (($x2072 (= cell_1_1 4)))
 (let (($x3769 (= cell_1_1 3)))
 (let (($x288 (= cell_1_1 2)))
 (let (($x4719 (= cell_1_1 1)))
 (or $x4719 $x288 $x3769 $x2072 $x5226 $x58 $x7946 $x6715 $x7388)))))))))))
(assert
 (let (($x1925 (= cell_2_1 9)))
 (let (($x401 (= cell_2_1 8)))
 (let (($x2136 (= cell_2_1 7)))
 (let (($x10189 (= cell_2_1 6)))
 (let (($x8609 (= cell_2_1 5)))
 (let (($x677 (= cell_2_1 4)))
 (let (($x2256 (= cell_2_1 3)))
 (let (($x392 (= cell_2_1 2)))
 (let (($x6319 (= cell_2_1 1)))
 (or $x6319 $x392 $x2256 $x677 $x8609 $x10189 $x2136 $x401 $x1925)))))))))))
(assert
 (let (($x3791 (= cell_3_1 9)))
 (let (($x9143 (= cell_3_1 8)))
 (let (($x9343 (= cell_3_1 7)))
 (let (($x4653 (= cell_3_1 6)))
 (let (($x10122 (= cell_3_1 5)))
 (let (($x5400 (= cell_3_1 4)))
 (let (($x7874 (= cell_3_1 3)))
 (let (($x6930 (= cell_3_1 2)))
 (let (($x706 (= cell_3_1 1)))
 (or $x706 $x6930 $x7874 $x5400 $x10122 $x4653 $x9343 $x9143 $x3791)))))))))))
(assert
 (let (($x248 (= cell_4_1 9)))
 (let (($x8513 (= cell_4_1 8)))
 (let (($x5040 (= cell_4_1 7)))
 (let (($x4491 (= cell_4_1 6)))
 (let (($x3927 (= cell_4_1 5)))
 (let (($x9710 (= cell_4_1 4)))
 (let (($x10034 (= cell_4_1 3)))
 (let (($x7419 (= cell_4_1 2)))
 (let (($x8602 (= cell_4_1 1)))
 (or $x8602 $x7419 $x10034 $x9710 $x3927 $x4491 $x5040 $x8513 $x248)))))))))))
(assert
 (let (($x7078 (= cell_5_1 9)))
 (let (($x9722 (= cell_5_1 8)))
 (let (($x4508 (= cell_5_1 7)))
 (let (($x7904 (= cell_5_1 6)))
 (let (($x8496 (= cell_5_1 5)))
 (let (($x5754 (= cell_5_1 4)))
 (let (($x4868 (= cell_5_1 3)))
 (let (($x8194 (= cell_5_1 2)))
 (let (($x5403 (= cell_5_1 1)))
 (or $x5403 $x8194 $x4868 $x5754 $x8496 $x7904 $x4508 $x9722 $x7078)))))))))))
(assert
 (let (($x6375 (= cell_6_1 9)))
 (let (($x9288 (= cell_6_1 8)))
 (let (($x2559 (= cell_6_1 7)))
 (let (($x4548 (= cell_6_1 6)))
 (let (($x2061 (= cell_6_1 5)))
 (let (($x4731 (= cell_6_1 4)))
 (let (($x155 (= cell_6_1 3)))
 (let (($x2785 (= cell_6_1 2)))
 (let (($x10205 (= cell_6_1 1)))
 (or $x10205 $x2785 $x155 $x4731 $x2061 $x4548 $x2559 $x9288 $x6375)))))))))))
(assert
 (let (($x2612 (= cell_7_1 9)))
 (let (($x602 (= cell_7_1 8)))
 (let (($x8175 (= cell_7_1 7)))
 (let (($x7074 (= cell_7_1 6)))
 (let (($x7817 (= cell_7_1 5)))
 (let (($x3460 (= cell_7_1 4)))
 (let (($x3229 (= cell_7_1 3)))
 (let (($x5270 (= cell_7_1 2)))
 (let (($x5634 (= cell_7_1 1)))
 (or $x5634 $x5270 $x3229 $x3460 $x7817 $x7074 $x8175 $x602 $x2612)))))))))))
(assert
 (let (($x9750 (= cell_8_1 9)))
 (let (($x7212 (= cell_8_1 8)))
 (let (($x3879 (= cell_8_1 7)))
 (let (($x1907 (= cell_8_1 6)))
 (let (($x3967 (= cell_8_1 5)))
 (let (($x1894 (= cell_8_1 4)))
 (let (($x2776 (= cell_8_1 3)))
 (let (($x3878 (= cell_8_1 2)))
 (let (($x5591 (= cell_8_1 1)))
 (or $x5591 $x3878 $x2776 $x1894 $x3967 $x1907 $x3879 $x7212 $x9750)))))))))))
(assert
 (let (($x6946 (= cell_9_1 9)))
 (let (($x736 (= cell_9_1 8)))
 (let (($x1631 (= cell_9_1 7)))
 (let (($x1636 (= cell_9_1 6)))
 (let (($x3706 (= cell_9_1 5)))
 (let (($x7648 (= cell_9_1 4)))
 (let (($x455 (= cell_9_1 3)))
 (let (($x2789 (= cell_9_1 2)))
 (let (($x4950 (= cell_9_1 1)))
 (or $x4950 $x2789 $x455 $x7648 $x3706 $x1636 $x1631 $x736 $x6946)))))))))))
(assert
 (let (($x4037 (= cell_1_2 9)))
 (let (($x2231 (= cell_1_2 8)))
 (let (($x6347 (= cell_1_2 7)))
 (let (($x3105 (= cell_1_2 6)))
 (let (($x7284 (= cell_1_2 5)))
 (let (($x2216 (= cell_1_2 4)))
 (let (($x7092 (= cell_1_2 3)))
 (let (($x911 (= cell_1_2 2)))
 (let (($x5485 (= cell_1_2 1)))
 (or $x5485 $x911 $x7092 $x2216 $x7284 $x3105 $x6347 $x2231 $x4037)))))))))))
(assert
 (let (($x10061 (= cell_2_2 9)))
 (let (($x134 (= cell_2_2 8)))
 (let (($x6234 (= cell_2_2 7)))
 (let (($x9988 (= cell_2_2 6)))
 (let (($x358 (= cell_2_2 5)))
 (let (($x4143 (= cell_2_2 4)))
 (let (($x1728 (= cell_2_2 3)))
 (let (($x9344 (= cell_2_2 2)))
 (let (($x8956 (= cell_2_2 1)))
 (or $x8956 $x9344 $x1728 $x4143 $x358 $x9988 $x6234 $x134 $x10061)))))))))))
(assert
 (let (($x412 (= cell_3_2 9)))
 (let (($x1463 (= cell_3_2 8)))
 (let (($x2435 (= cell_3_2 7)))
 (let (($x5486 (= cell_3_2 6)))
 (let (($x1378 (= cell_3_2 5)))
 (let (($x258 (= cell_3_2 4)))
 (let (($x1994 (= cell_3_2 3)))
 (let (($x2592 (= cell_3_2 2)))
 (let (($x6116 (= cell_3_2 1)))
 (or $x6116 $x2592 $x1994 $x258 $x1378 $x5486 $x2435 $x1463 $x412)))))))))))
(assert
 (let (($x9659 (= cell_4_2 9)))
 (let (($x6867 (= cell_4_2 8)))
 (let (($x6460 (= cell_4_2 7)))
 (let (($x7302 (= cell_4_2 6)))
 (let (($x9892 (= cell_4_2 5)))
 (let (($x5800 (= cell_4_2 4)))
 (let (($x1089 (= cell_4_2 3)))
 (let (($x516 (= cell_4_2 2)))
 (let (($x7221 (= cell_4_2 1)))
 (or $x7221 $x516 $x1089 $x5800 $x9892 $x7302 $x6460 $x6867 $x9659)))))))))))
(assert
 (let (($x5743 (= cell_5_2 9)))
 (let (($x1078 (= cell_5_2 8)))
 (let (($x8019 (= cell_5_2 7)))
 (let (($x6165 (= cell_5_2 6)))
 (let (($x1391 (= cell_5_2 5)))
 (let (($x4567 (= cell_5_2 4)))
 (let (($x2327 (= cell_5_2 3)))
 (let (($x676 (= cell_5_2 2)))
 (let (($x9217 (= cell_5_2 1)))
 (or $x9217 $x676 $x2327 $x4567 $x1391 $x6165 $x8019 $x1078 $x5743)))))))))))
(assert
 (let (($x5875 (= cell_6_2 9)))
 (let (($x589 (= cell_6_2 8)))
 (let (($x8018 (= cell_6_2 7)))
 (let (($x7151 (= cell_6_2 6)))
 (let (($x1635 (= cell_6_2 5)))
 (let (($x6046 (= cell_6_2 4)))
 (let (($x6593 (= cell_6_2 3)))
 (let (($x1214 (= cell_6_2 2)))
 (let (($x7696 (= cell_6_2 1)))
 (or $x7696 $x1214 $x6593 $x6046 $x1635 $x7151 $x8018 $x589 $x5875)))))))))))
(assert
 (let (($x2032 (= cell_7_2 9)))
 (let (($x1993 (= cell_7_2 8)))
 (let (($x4553 (= cell_7_2 7)))
 (let (($x8854 (= cell_7_2 6)))
 (let (($x6917 (= cell_7_2 5)))
 (let (($x8437 (= cell_7_2 4)))
 (let (($x6688 (= cell_7_2 3)))
 (let (($x6256 (= cell_7_2 2)))
 (let (($x1347 (= cell_7_2 1)))
 (or $x1347 $x6256 $x6688 $x8437 $x6917 $x8854 $x4553 $x1993 $x2032)))))))))))
(assert
 (let (($x257 (= cell_8_2 9)))
 (let (($x2792 (= cell_8_2 8)))
 (let (($x8585 (= cell_8_2 7)))
 (let (($x6417 (= cell_8_2 6)))
 (let (($x1785 (= cell_8_2 5)))
 (let (($x8045 (= cell_8_2 4)))
 (let (($x5047 (= cell_8_2 3)))
 (let (($x9351 (= cell_8_2 2)))
 (let (($x6067 (= cell_8_2 1)))
 (or $x6067 $x9351 $x5047 $x8045 $x1785 $x6417 $x8585 $x2792 $x257)))))))))))
(assert
 (let (($x9255 (= cell_9_2 9)))
 (let (($x6992 (= cell_9_2 8)))
 (let (($x3249 (= cell_9_2 7)))
 (let (($x1996 (= cell_9_2 6)))
 (let (($x4533 (= cell_9_2 5)))
 (let (($x166 (= cell_9_2 4)))
 (let (($x5243 (= cell_9_2 3)))
 (let (($x4212 (= cell_9_2 2)))
 (let (($x3287 (= cell_9_2 1)))
 (or $x3287 $x4212 $x5243 $x166 $x4533 $x1996 $x3249 $x6992 $x9255)))))))))))
(assert
 (let (($x5454 (= cell_1_3 9)))
 (let (($x3855 (= cell_1_3 8)))
 (let (($x963 (= cell_1_3 7)))
 (let (($x9203 (= cell_1_3 6)))
 (let (($x123 (= cell_1_3 5)))
 (let (($x3385 (= cell_1_3 4)))
 (let (($x1730 (= cell_1_3 3)))
 (let (($x2768 (= cell_1_3 2)))
 (let (($x8210 (= cell_1_3 1)))
 (or $x8210 $x2768 $x1730 $x3385 $x123 $x9203 $x963 $x3855 $x5454)))))))))))
(assert
 (let (($x8427 (= cell_2_3 9)))
 (let (($x1941 (= cell_2_3 8)))
 (let (($x7912 (= cell_2_3 7)))
 (let (($x2458 (= cell_2_3 6)))
 (let (($x8346 (= cell_2_3 5)))
 (let (($x5172 (= cell_2_3 4)))
 (let (($x2584 (= cell_2_3 3)))
 (let (($x3835 (= cell_2_3 2)))
 (let (($x6900 (= cell_2_3 1)))
 (or $x6900 $x3835 $x2584 $x5172 $x8346 $x2458 $x7912 $x1941 $x8427)))))))))))
(assert
 (let (($x6516 (= cell_3_3 9)))
 (let (($x5847 (= cell_3_3 8)))
 (let (($x803 (= cell_3_3 7)))
 (let (($x2763 (= cell_3_3 6)))
 (let (($x212 (= cell_3_3 5)))
 (let (($x1369 (= cell_3_3 4)))
 (let (($x2416 (= cell_3_3 3)))
 (let (($x8763 (= cell_3_3 2)))
 (let (($x10134 (= cell_3_3 1)))
 (or $x10134 $x8763 $x2416 $x1369 $x212 $x2763 $x803 $x5847 $x6516)))))))))))
(assert
 (let (($x3465 (= cell_4_3 9)))
 (let (($x8184 (= cell_4_3 8)))
 (let (($x6717 (= cell_4_3 7)))
 (let (($x236 (= cell_4_3 6)))
 (let (($x1808 (= cell_4_3 5)))
 (let (($x1349 (= cell_4_3 4)))
 (let (($x9863 (= cell_4_3 3)))
 (let (($x9712 (= cell_4_3 2)))
 (let (($x9496 (= cell_4_3 1)))
 (or $x9496 $x9712 $x9863 $x1349 $x1808 $x236 $x6717 $x8184 $x3465)))))))))))
(assert
 (let (($x8368 (= cell_5_3 9)))
 (let (($x2236 (= cell_5_3 8)))
 (let (($x1573 (= cell_5_3 7)))
 (let (($x1736 (= cell_5_3 6)))
 (let (($x7270 (= cell_5_3 5)))
 (let (($x5507 (= cell_5_3 4)))
 (let (($x8607 (= cell_5_3 3)))
 (let (($x6801 (= cell_5_3 2)))
 (let (($x8090 (= cell_5_3 1)))
 (or $x8090 $x6801 $x8607 $x5507 $x7270 $x1736 $x1573 $x2236 $x8368)))))))))))
(assert
 (let (($x6014 (= cell_6_3 9)))
 (let (($x2353 (= cell_6_3 8)))
 (let (($x5815 (= cell_6_3 7)))
 (let (($x7978 (= cell_6_3 6)))
 (let (($x9238 (= cell_6_3 5)))
 (let (($x7532 (= cell_6_3 4)))
 (let (($x3509 (= cell_6_3 3)))
 (let (($x863 (= cell_6_3 2)))
 (let (($x1191 (= cell_6_3 1)))
 (or $x1191 $x863 $x3509 $x7532 $x9238 $x7978 $x5815 $x2353 $x6014)))))))))))
(assert
 (let (($x6591 (= cell_7_3 9)))
 (let (($x9080 (= cell_7_3 8)))
 (let (($x4242 (= cell_7_3 7)))
 (let (($x4817 (= cell_7_3 6)))
 (let (($x3528 (= cell_7_3 5)))
 (let (($x1676 (= cell_7_3 4)))
 (let (($x4351 (= cell_7_3 3)))
 (let (($x8137 (= cell_7_3 2)))
 (let (($x10150 (= cell_7_3 1)))
 (or $x10150 $x8137 $x4351 $x1676 $x3528 $x4817 $x4242 $x9080 $x6591)))))))))))
(assert
 (let (($x8168 (= cell_8_3 9)))
 (let (($x5176 (= cell_8_3 8)))
 (let (($x3667 (= cell_8_3 7)))
 (let (($x10024 (= cell_8_3 6)))
 (let (($x4785 (= cell_8_3 5)))
 (let (($x2523 (= cell_8_3 4)))
 (let (($x6847 (= cell_8_3 3)))
 (let (($x3862 (= cell_8_3 2)))
 (let (($x1691 (= cell_8_3 1)))
 (or $x1691 $x3862 $x6847 $x2523 $x4785 $x10024 $x3667 $x5176 $x8168)))))))))))
(assert
 (let (($x1718 (= cell_9_3 9)))
 (let (($x829 (= cell_9_3 8)))
 (let (($x8839 (= cell_9_3 7)))
 (let (($x3242 (= cell_9_3 6)))
 (let (($x10005 (= cell_9_3 5)))
 (let (($x1021 (= cell_9_3 4)))
 (let (($x2797 (= cell_9_3 3)))
 (let (($x1560 (= cell_9_3 2)))
 (let (($x2182 (= cell_9_3 1)))
 (or $x2182 $x1560 $x2797 $x1021 $x10005 $x3242 $x8839 $x829 $x1718)))))))))))
(assert
 (let (($x4904 (= cell_1_4 9)))
 (let (($x5594 (= cell_1_4 8)))
 (let (($x2901 (= cell_1_4 7)))
 (let (($x700 (= cell_1_4 6)))
 (let (($x4029 (= cell_1_4 5)))
 (let (($x8358 (= cell_1_4 4)))
 (let (($x3620 (= cell_1_4 3)))
 (let (($x9683 (= cell_1_4 2)))
 (let (($x4611 (= cell_1_4 1)))
 (or $x4611 $x9683 $x3620 $x8358 $x4029 $x700 $x2901 $x5594 $x4904)))))))))))
(assert
 (let (($x6748 (= cell_2_4 9)))
 (let (($x3408 (= cell_2_4 8)))
 (let (($x9330 (= cell_2_4 7)))
 (let (($x1648 (= cell_2_4 6)))
 (let (($x8503 (= cell_2_4 5)))
 (let (($x1699 (= cell_2_4 4)))
 (let (($x895 (= cell_2_4 3)))
 (let (($x7203 (= cell_2_4 2)))
 (let (($x8311 (= cell_2_4 1)))
 (or $x8311 $x7203 $x895 $x1699 $x8503 $x1648 $x9330 $x3408 $x6748)))))))))))
(assert
 (let (($x4650 (= cell_3_4 9)))
 (let (($x9063 (= cell_3_4 8)))
 (let (($x2167 (= cell_3_4 7)))
 (let (($x6035 (= cell_3_4 6)))
 (let (($x6870 (= cell_3_4 5)))
 (let (($x4123 (= cell_3_4 4)))
 (let (($x1822 (= cell_3_4 3)))
 (let (($x7516 (= cell_3_4 2)))
 (let (($x3532 (= cell_3_4 1)))
 (or $x3532 $x7516 $x1822 $x4123 $x6870 $x6035 $x2167 $x9063 $x4650)))))))))))
(assert
 (let (($x6394 (= cell_4_4 9)))
 (let (($x8488 (= cell_4_4 8)))
 (let (($x3477 (= cell_4_4 7)))
 (let (($x3040 (= cell_4_4 6)))
 (let (($x7001 (= cell_4_4 5)))
 (let (($x9171 (= cell_4_4 4)))
 (let (($x3761 (= cell_4_4 3)))
 (let (($x6072 (= cell_4_4 2)))
 (let (($x1459 (= cell_4_4 1)))
 (or $x1459 $x6072 $x3761 $x9171 $x7001 $x3040 $x3477 $x8488 $x6394)))))))))))
(assert
 (let (($x3809 (= cell_5_4 9)))
 (let (($x435 (= cell_5_4 8)))
 (let (($x8119 (= cell_5_4 7)))
 (let (($x915 (= cell_5_4 6)))
 (let (($x9474 (= cell_5_4 5)))
 (let (($x8177 (= cell_5_4 4)))
 (let (($x4524 (= cell_5_4 3)))
 (let (($x3569 (= cell_5_4 2)))
 (let (($x5969 (= cell_5_4 1)))
 (or $x5969 $x3569 $x4524 $x8177 $x9474 $x915 $x8119 $x435 $x3809)))))))))))
(assert
 (let (($x1576 (= cell_6_4 9)))
 (let (($x7407 (= cell_6_4 8)))
 (let (($x1608 (= cell_6_4 7)))
 (let (($x9557 (= cell_6_4 6)))
 (let (($x8270 (= cell_6_4 5)))
 (let (($x6637 (= cell_6_4 4)))
 (let (($x10144 (= cell_6_4 3)))
 (let (($x3785 (= cell_6_4 2)))
 (let (($x9333 (= cell_6_4 1)))
 (or $x9333 $x3785 $x10144 $x6637 $x8270 $x9557 $x1608 $x7407 $x1576)))))))))))
(assert
 (let (($x9364 (= cell_7_4 9)))
 (let (($x1203 (= cell_7_4 8)))
 (let (($x7082 (= cell_7_4 7)))
 (let (($x7793 (= cell_7_4 6)))
 (let (($x5405 (= cell_7_4 5)))
 (let (($x8317 (= cell_7_4 4)))
 (let (($x2104 (= cell_7_4 3)))
 (let (($x8479 (= cell_7_4 2)))
 (let (($x1464 (= cell_7_4 1)))
 (or $x1464 $x8479 $x2104 $x8317 $x5405 $x7793 $x7082 $x1203 $x9364)))))))))))
(assert
 (let (($x3217 (= cell_8_4 9)))
 (let (($x1906 (= cell_8_4 8)))
 (let (($x9152 (= cell_8_4 7)))
 (let (($x6282 (= cell_8_4 6)))
 (let (($x527 (= cell_8_4 5)))
 (let (($x8139 (= cell_8_4 4)))
 (let (($x4261 (= cell_8_4 3)))
 (let (($x5899 (= cell_8_4 2)))
 (let (($x5137 (= cell_8_4 1)))
 (or $x5137 $x5899 $x4261 $x8139 $x527 $x6282 $x9152 $x1906 $x3217)))))))))))
(assert
 (let (($x5701 (= cell_9_4 9)))
 (let (($x9267 (= cell_9_4 8)))
 (let (($x2065 (= cell_9_4 7)))
 (let (($x4468 (= cell_9_4 6)))
 (let (($x8676 (= cell_9_4 5)))
 (let (($x3955 (= cell_9_4 4)))
 (let (($x1550 (= cell_9_4 3)))
 (let (($x7529 (= cell_9_4 2)))
 (let (($x8325 (= cell_9_4 1)))
 (or $x8325 $x7529 $x1550 $x3955 $x8676 $x4468 $x2065 $x9267 $x5701)))))))))))
(assert
 (let (($x8989 (= cell_1_5 9)))
 (let (($x4781 (= cell_1_5 8)))
 (let (($x4014 (= cell_1_5 7)))
 (let (($x4046 (= cell_1_5 6)))
 (let (($x2535 (= cell_1_5 5)))
 (let (($x1595 (= cell_1_5 4)))
 (let (($x939 (= cell_1_5 3)))
 (let (($x5641 (= cell_1_5 2)))
 (let (($x1145 (= cell_1_5 1)))
 (or $x1145 $x5641 $x939 $x1595 $x2535 $x4046 $x4014 $x4781 $x8989)))))))))))
(assert
 (let (($x2243 (= cell_2_5 9)))
 (let (($x7104 (= cell_2_5 8)))
 (let (($x8174 (= cell_2_5 7)))
 (let (($x7394 (= cell_2_5 6)))
 (let (($x4215 (= cell_2_5 5)))
 (let (($x8462 (= cell_2_5 4)))
 (let (($x8030 (= cell_2_5 3)))
 (let (($x4721 (= cell_2_5 2)))
 (let (($x6188 (= cell_2_5 1)))
 (or $x6188 $x4721 $x8030 $x8462 $x4215 $x7394 $x8174 $x7104 $x2243)))))))))))
(assert
 (let (($x6809 (= cell_3_5 9)))
 (let (($x29 (= cell_3_5 8)))
 (let (($x4183 (= cell_3_5 7)))
 (let (($x3368 (= cell_3_5 6)))
 (let (($x2886 (= cell_3_5 5)))
 (let (($x5328 (= cell_3_5 4)))
 (let (($x4430 (= cell_3_5 3)))
 (let (($x10109 (= cell_3_5 2)))
 (let (($x1230 (= cell_3_5 1)))
 (or $x1230 $x10109 $x4430 $x5328 $x2886 $x3368 $x4183 $x29 $x6809)))))))))))
(assert
 (let (($x9637 (= cell_4_5 9)))
 (let (($x7390 (= cell_4_5 8)))
 (let (($x5830 (= cell_4_5 7)))
 (let (($x1467 (= cell_4_5 6)))
 (let (($x5477 (= cell_4_5 5)))
 (let (($x293 (= cell_4_5 4)))
 (let (($x3016 (= cell_4_5 3)))
 (let (($x8843 (= cell_4_5 2)))
 (let (($x2497 (= cell_4_5 1)))
 (or $x2497 $x8843 $x3016 $x293 $x5477 $x1467 $x5830 $x7390 $x9637)))))))))))
(assert
 (let (($x9071 (= cell_5_5 9)))
 (let (($x7500 (= cell_5_5 8)))
 (let (($x5692 (= cell_5_5 7)))
 (let (($x3869 (= cell_5_5 6)))
 (let (($x9067 (= cell_5_5 5)))
 (let (($x8245 (= cell_5_5 4)))
 (let (($x9668 (= cell_5_5 3)))
 (let (($x9737 (= cell_5_5 2)))
 (let (($x9273 (= cell_5_5 1)))
 (or $x9273 $x9737 $x9668 $x8245 $x9067 $x3869 $x5692 $x7500 $x9071)))))))))))
(assert
 (let (($x4599 (= cell_6_5 9)))
 (let (($x2754 (= cell_6_5 8)))
 (let (($x4147 (= cell_6_5 7)))
 (let (($x5029 (= cell_6_5 6)))
 (let (($x3693 (= cell_6_5 5)))
 (let (($x451 (= cell_6_5 4)))
 (let (($x2234 (= cell_6_5 3)))
 (let (($x8229 (= cell_6_5 2)))
 (let (($x2322 (= cell_6_5 1)))
 (or $x2322 $x8229 $x2234 $x451 $x3693 $x5029 $x4147 $x2754 $x4599)))))))))))
(assert
 (let (($x7545 (= cell_7_5 9)))
 (let (($x8898 (= cell_7_5 8)))
 (let (($x9520 (= cell_7_5 7)))
 (let (($x6400 (= cell_7_5 6)))
 (let (($x8133 (= cell_7_5 5)))
 (let (($x1040 (= cell_7_5 4)))
 (let (($x4591 (= cell_7_5 3)))
 (let (($x2846 (= cell_7_5 2)))
 (let (($x1630 (= cell_7_5 1)))
 (or $x1630 $x2846 $x4591 $x1040 $x8133 $x6400 $x9520 $x8898 $x7545)))))))))))
(assert
 (let (($x3179 (= cell_8_5 9)))
 (let (($x4302 (= cell_8_5 8)))
 (let (($x6840 (= cell_8_5 7)))
 (let (($x7187 (= cell_8_5 6)))
 (let (($x9099 (= cell_8_5 5)))
 (let (($x8468 (= cell_8_5 4)))
 (let (($x1507 (= cell_8_5 3)))
 (let (($x4551 (= cell_8_5 2)))
 (let (($x1130 (= cell_8_5 1)))
 (or $x1130 $x4551 $x1507 $x8468 $x9099 $x7187 $x6840 $x4302 $x3179)))))))))))
(assert
 (let (($x3613 (= cell_9_5 9)))
 (let (($x8196 (= cell_9_5 8)))
 (let (($x6310 (= cell_9_5 7)))
 (let (($x4607 (= cell_9_5 6)))
 (let (($x6578 (= cell_9_5 5)))
 (let (($x3833 (= cell_9_5 4)))
 (let (($x4945 (= cell_9_5 3)))
 (let (($x594 (= cell_9_5 2)))
 (let (($x149 (= cell_9_5 1)))
 (or $x149 $x594 $x4945 $x3833 $x6578 $x4607 $x6310 $x8196 $x3613)))))))))))
(assert
 (let (($x879 (= cell_1_6 9)))
 (let (($x1271 (= cell_1_6 8)))
 (let (($x1955 (= cell_1_6 7)))
 (let (($x3610 (= cell_1_6 6)))
 (let (($x6236 (= cell_1_6 5)))
 (let (($x9314 (= cell_1_6 4)))
 (let (($x9453 (= cell_1_6 3)))
 (let (($x10072 (= cell_1_6 2)))
 (let (($x1723 (= cell_1_6 1)))
 (or $x1723 $x10072 $x9453 $x9314 $x6236 $x3610 $x1955 $x1271 $x879)))))))))))
(assert
 (let (($x5363 (= cell_2_6 9)))
 (let (($x1167 (= cell_2_6 8)))
 (let (($x6298 (= cell_2_6 7)))
 (let (($x1840 (= cell_2_6 6)))
 (let (($x8043 (= cell_2_6 5)))
 (let (($x8183 (= cell_2_6 4)))
 (let (($x10073 (= cell_2_6 3)))
 (let (($x4230 (= cell_2_6 2)))
 (let (($x7025 (= cell_2_6 1)))
 (or $x7025 $x4230 $x10073 $x8183 $x8043 $x1840 $x6298 $x1167 $x5363)))))))))))
(assert
 (let (($x8315 (= cell_3_6 9)))
 (let (($x4965 (= cell_3_6 8)))
 (let (($x7386 (= cell_3_6 7)))
 (let (($x1909 (= cell_3_6 6)))
 (let (($x9561 (= cell_3_6 5)))
 (let (($x3887 (= cell_3_6 4)))
 (let (($x522 (= cell_3_6 3)))
 (let (($x2093 (= cell_3_6 2)))
 (let (($x6350 (= cell_3_6 1)))
 (or $x6350 $x2093 $x522 $x3887 $x9561 $x1909 $x7386 $x4965 $x8315)))))))))))
(assert
 (let (($x5017 (= cell_4_6 9)))
 (let (($x6585 (= cell_4_6 8)))
 (let (($x4990 (= cell_4_6 7)))
 (let (($x4657 (= cell_4_6 6)))
 (let (($x3497 (= cell_4_6 5)))
 (let (($x7642 (= cell_4_6 4)))
 (let (($x3183 (= cell_4_6 3)))
 (let (($x8713 (= cell_4_6 2)))
 (let (($x513 (= cell_4_6 1)))
 (or $x513 $x8713 $x3183 $x7642 $x3497 $x4657 $x4990 $x6585 $x5017)))))))))))
(assert
 (let (($x4849 (= cell_5_6 9)))
 (let (($x9076 (= cell_5_6 8)))
 (let (($x167 (= cell_5_6 7)))
 (let (($x7047 (= cell_5_6 6)))
 (let (($x5244 (= cell_5_6 5)))
 (let (($x2048 (= cell_5_6 4)))
 (let (($x10049 (= cell_5_6 3)))
 (let (($x3337 (= cell_5_6 2)))
 (let (($x4547 (= cell_5_6 1)))
 (or $x4547 $x3337 $x10049 $x2048 $x5244 $x7047 $x167 $x9076 $x4849)))))))))))
(assert
 (let (($x6264 (= cell_6_6 9)))
 (let (($x7591 (= cell_6_6 8)))
 (let (($x8564 (= cell_6_6 7)))
 (let (($x3202 (= cell_6_6 6)))
 (let (($x4730 (= cell_6_6 5)))
 (let (($x6786 (= cell_6_6 4)))
 (let (($x3475 (= cell_6_6 3)))
 (let (($x4673 (= cell_6_6 2)))
 (let (($x8580 (= cell_6_6 1)))
 (or $x8580 $x4673 $x3475 $x6786 $x4730 $x3202 $x8564 $x7591 $x6264)))))))))))
(assert
 (let (($x5250 (= cell_7_6 9)))
 (let (($x7102 (= cell_7_6 8)))
 (let (($x4144 (= cell_7_6 7)))
 (let (($x6063 (= cell_7_6 6)))
 (let (($x6611 (= cell_7_6 5)))
 (let (($x8997 (= cell_7_6 4)))
 (let (($x9585 (= cell_7_6 3)))
 (let (($x7563 (= cell_7_6 2)))
 (let (($x9955 (= cell_7_6 1)))
 (or $x9955 $x7563 $x9585 $x8997 $x6611 $x6063 $x4144 $x7102 $x5250)))))))))))
(assert
 (let (($x9883 (= cell_8_6 9)))
 (let (($x6820 (= cell_8_6 8)))
 (let (($x1482 (= cell_8_6 7)))
 (let (($x3504 (= cell_8_6 6)))
 (let (($x7561 (= cell_8_6 5)))
 (let (($x2449 (= cell_8_6 4)))
 (let (($x3838 (= cell_8_6 3)))
 (let (($x9961 (= cell_8_6 2)))
 (let (($x8552 (= cell_8_6 1)))
 (or $x8552 $x9961 $x3838 $x2449 $x7561 $x3504 $x1482 $x6820 $x9883)))))))))))
(assert
 (let (($x7612 (= cell_9_6 9)))
 (let (($x7815 (= cell_9_6 8)))
 (let (($x6283 (= cell_9_6 7)))
 (let (($x9696 (= cell_9_6 6)))
 (let (($x5179 (= cell_9_6 5)))
 (let (($x5871 (= cell_9_6 4)))
 (let (($x5060 (= cell_9_6 3)))
 (let (($x6767 (= cell_9_6 2)))
 (let (($x4643 (= cell_9_6 1)))
 (or $x4643 $x6767 $x5060 $x5871 $x5179 $x9696 $x6283 $x7815 $x7612)))))))))))
(assert
 (let (($x3201 (= cell_1_7 9)))
 (let (($x6648 (= cell_1_7 8)))
 (let (($x5901 (= cell_1_7 7)))
 (let (($x2632 (= cell_1_7 6)))
 (let (($x9012 (= cell_1_7 5)))
 (let (($x3985 (= cell_1_7 4)))
 (let (($x2551 (= cell_1_7 3)))
 (let (($x7996 (= cell_1_7 2)))
 (let (($x4947 (= cell_1_7 1)))
 (or $x4947 $x7996 $x2551 $x3985 $x9012 $x2632 $x5901 $x6648 $x3201)))))))))))
(assert
 (let (($x4616 (= cell_2_7 9)))
 (let (($x10026 (= cell_2_7 8)))
 (let (($x5112 (= cell_2_7 7)))
 (let (($x8411 (= cell_2_7 6)))
 (let (($x2743 (= cell_2_7 5)))
 (let (($x9929 (= cell_2_7 4)))
 (let (($x1538 (= cell_2_7 3)))
 (let (($x5928 (= cell_2_7 2)))
 (let (($x7434 (= cell_2_7 1)))
 (or $x7434 $x5928 $x1538 $x9929 $x2743 $x8411 $x5112 $x10026 $x4616)))))))))))
(assert
 (let (($x1896 (= cell_3_7 9)))
 (let (($x9209 (= cell_3_7 8)))
 (let (($x3024 (= cell_3_7 7)))
 (let (($x6481 (= cell_3_7 6)))
 (let (($x10241 (= cell_3_7 5)))
 (let (($x8724 (= cell_3_7 4)))
 (let (($x1201 (= cell_3_7 3)))
 (let (($x1313 (= cell_3_7 2)))
 (let (($x7888 (= cell_3_7 1)))
 (or $x7888 $x1313 $x1201 $x8724 $x10241 $x6481 $x3024 $x9209 $x1896)))))))))))
(assert
 (let (($x1382 (= cell_4_7 9)))
 (let (($x7684 (= cell_4_7 8)))
 (let (($x78 (= cell_4_7 7)))
 (let (($x1974 (= cell_4_7 6)))
 (let (($x3890 (= cell_4_7 5)))
 (let (($x105 (= cell_4_7 4)))
 (let (($x10036 (= cell_4_7 3)))
 (let (($x3553 (= cell_4_7 2)))
 (let (($x6576 (= cell_4_7 1)))
 (or $x6576 $x3553 $x10036 $x105 $x3890 $x1974 $x78 $x7684 $x1382)))))))))))
(assert
 (let (($x8650 (= cell_5_7 9)))
 (let (($x6286 (= cell_5_7 8)))
 (let (($x1675 (= cell_5_7 7)))
 (let (($x2958 (= cell_5_7 6)))
 (let (($x8846 (= cell_5_7 5)))
 (let (($x5873 (= cell_5_7 4)))
 (let (($x6545 (= cell_5_7 3)))
 (let (($x5200 (= cell_5_7 2)))
 (let (($x8381 (= cell_5_7 1)))
 (or $x8381 $x5200 $x6545 $x5873 $x8846 $x2958 $x1675 $x6286 $x8650)))))))))))
(assert
 (let (($x3291 (= cell_6_7 9)))
 (let (($x943 (= cell_6_7 8)))
 (let (($x1877 (= cell_6_7 7)))
 (let (($x4801 (= cell_6_7 6)))
 (let (($x6026 (= cell_6_7 5)))
 (let (($x9043 (= cell_6_7 4)))
 (let (($x8635 (= cell_6_7 3)))
 (let (($x5780 (= cell_6_7 2)))
 (let (($x7673 (= cell_6_7 1)))
 (or $x7673 $x5780 $x8635 $x9043 $x6026 $x4801 $x1877 $x943 $x3291)))))))))))
(assert
 (let (($x1743 (= cell_7_7 9)))
 (let (($x2831 (= cell_7_7 8)))
 (let (($x3439 (= cell_7_7 7)))
 (let (($x7085 (= cell_7_7 6)))
 (let (($x4228 (= cell_7_7 5)))
 (let (($x3283 (= cell_7_7 4)))
 (let (($x6979 (= cell_7_7 3)))
 (let (($x8644 (= cell_7_7 2)))
 (let (($x6774 (= cell_7_7 1)))
 (or $x6774 $x8644 $x6979 $x3283 $x4228 $x7085 $x3439 $x2831 $x1743)))))))))))
(assert
 (let (($x6816 (= cell_8_7 9)))
 (let (($x6954 (= cell_8_7 8)))
 (let (($x5729 (= cell_8_7 7)))
 (let (($x3102 (= cell_8_7 6)))
 (let (($x607 (= cell_8_7 5)))
 (let (($x5736 (= cell_8_7 4)))
 (let (($x4087 (= cell_8_7 3)))
 (let (($x4297 (= cell_8_7 2)))
 (let (($x7414 (= cell_8_7 1)))
 (or $x7414 $x4297 $x4087 $x5736 $x607 $x3102 $x5729 $x6954 $x6816)))))))))))
(assert
 (let (($x1213 (= cell_9_7 9)))
 (let (($x4385 (= cell_9_7 8)))
 (let (($x7584 (= cell_9_7 7)))
 (let (($x3323 (= cell_9_7 6)))
 (let (($x331 (= cell_9_7 5)))
 (let (($x7710 (= cell_9_7 4)))
 (let (($x1658 (= cell_9_7 3)))
 (let (($x2775 (= cell_9_7 2)))
 (let (($x1663 (= cell_9_7 1)))
 (or $x1663 $x2775 $x1658 $x7710 $x331 $x3323 $x7584 $x4385 $x1213)))))))))))
(assert
 (let (($x9019 (= cell_1_8 9)))
 (let (($x325 (= cell_1_8 8)))
 (let (($x6276 (= cell_1_8 7)))
 (let (($x1773 (= cell_1_8 6)))
 (let (($x1775 (= cell_1_8 5)))
 (let (($x7121 (= cell_1_8 4)))
 (let (($x107 (= cell_1_8 3)))
 (let (($x7217 (= cell_1_8 2)))
 (let (($x8657 (= cell_1_8 1)))
 (or $x8657 $x7217 $x107 $x7121 $x1775 $x1773 $x6276 $x325 $x9019)))))))))))
(assert
 (let (($x7420 (= cell_2_8 9)))
 (let (($x9580 (= cell_2_8 8)))
 (let (($x6932 (= cell_2_8 7)))
 (let (($x8742 (= cell_2_8 6)))
 (let (($x4691 (= cell_2_8 5)))
 (let (($x3847 (= cell_2_8 4)))
 (let (($x2678 (= cell_2_8 3)))
 (let (($x7871 (= cell_2_8 2)))
 (let (($x3605 (= cell_2_8 1)))
 (or $x3605 $x7871 $x2678 $x3847 $x4691 $x8742 $x6932 $x9580 $x7420)))))))))))
(assert
 (let (($x1565 (= cell_3_8 9)))
 (let (($x1788 (= cell_3_8 8)))
 (let (($x8098 (= cell_3_8 7)))
 (let (($x1666 (= cell_3_8 6)))
 (let (($x4427 (= cell_3_8 5)))
 (let (($x2903 (= cell_3_8 4)))
 (let (($x4917 (= cell_3_8 3)))
 (let (($x8576 (= cell_3_8 2)))
 (let (($x5660 (= cell_3_8 1)))
 (or $x5660 $x8576 $x4917 $x2903 $x4427 $x1666 $x8098 $x1788 $x1565)))))))))))
(assert
 (let (($x1903 (= cell_4_8 9)))
 (let (($x367 (= cell_4_8 8)))
 (let (($x825 (= cell_4_8 7)))
 (let (($x7181 (= cell_4_8 6)))
 (let (($x3751 (= cell_4_8 5)))
 (let (($x4526 (= cell_4_8 4)))
 (let (($x9759 (= cell_4_8 3)))
 (let (($x3207 (= cell_4_8 2)))
 (let (($x6340 (= cell_4_8 1)))
 (or $x6340 $x3207 $x9759 $x4526 $x3751 $x7181 $x825 $x367 $x1903)))))))))))
(assert
 (let (($x6008 (= cell_5_8 9)))
 (let (($x403 (= cell_5_8 8)))
 (let (($x5638 (= cell_5_8 7)))
 (let (($x7477 (= cell_5_8 6)))
 (let (($x10106 (= cell_5_8 5)))
 (let (($x5300 (= cell_5_8 4)))
 (let (($x3182 (= cell_5_8 3)))
 (let (($x335 (= cell_5_8 2)))
 (let (($x1387 (= cell_5_8 1)))
 (or $x1387 $x335 $x3182 $x5300 $x10106 $x7477 $x5638 $x403 $x6008)))))))))))
(assert
 (let (($x6174 (= cell_6_8 9)))
 (let (($x349 (= cell_6_8 8)))
 (let (($x7601 (= cell_6_8 7)))
 (let (($x5110 (= cell_6_8 6)))
 (let (($x5286 (= cell_6_8 5)))
 (let (($x6936 (= cell_6_8 4)))
 (let (($x9953 (= cell_6_8 3)))
 (let (($x1776 (= cell_6_8 2)))
 (let (($x7751 (= cell_6_8 1)))
 (or $x7751 $x1776 $x9953 $x6936 $x5286 $x5110 $x7601 $x349 $x6174)))))))))))
(assert
 (let (($x8451 (= cell_7_8 9)))
 (let (($x9629 (= cell_7_8 8)))
 (let (($x1053 (= cell_7_8 7)))
 (let (($x5452 (= cell_7_8 6)))
 (let (($x4460 (= cell_7_8 5)))
 (let (($x1798 (= cell_7_8 4)))
 (let (($x393 (= cell_7_8 3)))
 (let (($x2508 (= cell_7_8 2)))
 (let (($x6883 (= cell_7_8 1)))
 (or $x6883 $x2508 $x393 $x1798 $x4460 $x5452 $x1053 $x9629 $x8451)))))))))))
(assert
 (let (($x10212 (= cell_8_8 9)))
 (let (($x7687 (= cell_8_8 8)))
 (let (($x4170 (= cell_8_8 7)))
 (let (($x3301 (= cell_8_8 6)))
 (let (($x655 (= cell_8_8 5)))
 (let (($x8188 (= cell_8_8 4)))
 (let (($x76 (= cell_8_8 3)))
 (let (($x1849 (= cell_8_8 2)))
 (let (($x4755 (= cell_8_8 1)))
 (or $x4755 $x1849 $x76 $x8188 $x655 $x3301 $x4170 $x7687 $x10212)))))))))))
(assert
 (let (($x2034 (= cell_9_8 9)))
 (let (($x3814 (= cell_9_8 8)))
 (let (($x5109 (= cell_9_8 7)))
 (let (($x8389 (= cell_9_8 6)))
 (let (($x5882 (= cell_9_8 5)))
 (let (($x4948 (= cell_9_8 4)))
 (let (($x535 (= cell_9_8 3)))
 (let (($x287 (= cell_9_8 2)))
 (let (($x6928 (= cell_9_8 1)))
 (or $x6928 $x287 $x535 $x4948 $x5882 $x8389 $x5109 $x3814 $x2034)))))))))))
(assert
 (let (($x878 (= cell_1_9 9)))
 (let (($x5108 (= cell_1_9 8)))
 (let (($x10164 (= cell_1_9 7)))
 (let (($x5343 (= cell_1_9 6)))
 (let (($x5443 (= cell_1_9 5)))
 (let (($x1987 (= cell_1_9 4)))
 (let (($x5401 (= cell_1_9 3)))
 (let (($x3212 (= cell_1_9 2)))
 (let (($x8158 (= cell_1_9 1)))
 (or $x8158 $x3212 $x5401 $x1987 $x5443 $x5343 $x10164 $x5108 $x878)))))))))))
(assert
 (let (($x85 (= cell_2_9 9)))
 (let (($x4911 (= cell_2_9 8)))
 (let (($x2329 (= cell_2_9 7)))
 (let (($x4283 (= cell_2_9 6)))
 (let (($x5032 (= cell_2_9 5)))
 (let (($x9485 (= cell_2_9 4)))
 (let (($x2044 (= cell_2_9 3)))
 (let (($x9387 (= cell_2_9 2)))
 (let (($x1474 (= cell_2_9 1)))
 (or $x1474 $x9387 $x2044 $x9485 $x5032 $x4283 $x2329 $x4911 $x85)))))))))))
(assert
 (let (($x2695 (= cell_3_9 9)))
 (let (($x733 (= cell_3_9 8)))
 (let (($x8199 (= cell_3_9 7)))
 (let (($x3432 (= cell_3_9 6)))
 (let (($x10135 (= cell_3_9 5)))
 (let (($x7864 (= cell_3_9 4)))
 (let (($x5249 (= cell_3_9 3)))
 (let (($x3319 (= cell_3_9 2)))
 (let (($x4239 (= cell_3_9 1)))
 (or $x4239 $x3319 $x5249 $x7864 $x10135 $x3432 $x8199 $x733 $x2695)))))))))))
(assert
 (let (($x8691 (= cell_4_9 9)))
 (let (($x3753 (= cell_4_9 8)))
 (let (($x5332 (= cell_4_9 7)))
 (let (($x10188 (= cell_4_9 6)))
 (let (($x4536 (= cell_4_9 5)))
 (let (($x8950 (= cell_4_9 4)))
 (let (($x440 (= cell_4_9 3)))
 (let (($x4136 (= cell_4_9 2)))
 (let (($x4866 (= cell_4_9 1)))
 (or $x4866 $x4136 $x440 $x8950 $x4536 $x10188 $x5332 $x3753 $x8691)))))))))))
(assert
 (let (($x4513 (= cell_5_9 9)))
 (let (($x7782 (= cell_5_9 8)))
 (let (($x4057 (= cell_5_9 7)))
 (let (($x4487 (= cell_5_9 6)))
 (let (($x1836 (= cell_5_9 5)))
 (let (($x9855 (= cell_5_9 4)))
 (let (($x7940 (= cell_5_9 3)))
 (let (($x5015 (= cell_5_9 2)))
 (let (($x9022 (= cell_5_9 1)))
 (or $x9022 $x5015 $x7940 $x9855 $x1836 $x4487 $x4057 $x7782 $x4513)))))))))))
(assert
 (let (($x2254 (= cell_6_9 9)))
 (let (($x10203 (= cell_6_9 8)))
 (let (($x10110 (= cell_6_9 7)))
 (let (($x2160 (= cell_6_9 6)))
 (let (($x2195 (= cell_6_9 5)))
 (let (($x7712 (= cell_6_9 4)))
 (let (($x9648 (= cell_6_9 3)))
 (let (($x6542 (= cell_6_9 2)))
 (let (($x2548 (= cell_6_9 1)))
 (or $x2548 $x6542 $x9648 $x7712 $x2195 $x2160 $x10110 $x10203 $x2254)))))))))))
(assert
 (let (($x5442 (= cell_7_9 9)))
 (let (($x8006 (= cell_7_9 8)))
 (let (($x1086 (= cell_7_9 7)))
 (let (($x7726 (= cell_7_9 6)))
 (let (($x2309 (= cell_7_9 5)))
 (let (($x2387 (= cell_7_9 4)))
 (let (($x7902 (= cell_7_9 3)))
 (let (($x3084 (= cell_7_9 2)))
 (let (($x6498 (= cell_7_9 1)))
 (or $x6498 $x3084 $x7902 $x2387 $x2309 $x7726 $x1086 $x8006 $x5442)))))))))))
(assert
 (let (($x6947 (= cell_8_9 9)))
 (let (($x3436 (= cell_8_9 8)))
 (let (($x6412 (= cell_8_9 7)))
 (let (($x7182 (= cell_8_9 6)))
 (let (($x8749 (= cell_8_9 5)))
 (let (($x3041 (= cell_8_9 4)))
 (let (($x8984 (= cell_8_9 3)))
 (let (($x4882 (= cell_8_9 2)))
 (let (($x5303 (= cell_8_9 1)))
 (or $x5303 $x4882 $x8984 $x3041 $x8749 $x7182 $x6412 $x3436 $x6947)))))))))))
(assert
 (let (($x6018 (= cell_9_9 9)))
 (let (($x3734 (= cell_9_9 8)))
 (let (($x410 (= cell_9_9 7)))
 (let (($x8095 (= cell_9_9 6)))
 (let (($x553 (= cell_9_9 5)))
 (let (($x4766 (= cell_9_9 4)))
 (let (($x370 (= cell_9_9 3)))
 (let (($x1605 (= cell_9_9 2)))
 (let (($x5590 (= cell_9_9 1)))
 (or $x5590 $x1605 $x370 $x4766 $x553 $x8095 $x410 $x3734 $x6018)))))))))))
(assert
 (and (distinct cell_1_1 cell_1_2 cell_1_3 cell_1_4 cell_1_5 cell_1_6 cell_1_7 cell_1_8 cell_1_9) true))
(assert
 (and (distinct cell_2_1 cell_2_2 cell_2_3 cell_2_4 cell_2_5 cell_2_6 cell_2_7 cell_2_8 cell_2_9) true))
(assert
 (and (distinct cell_3_1 cell_3_2 cell_3_3 cell_3_4 cell_3_5 cell_3_6 cell_3_7 cell_3_8 cell_3_9) true))
(assert
 (and (distinct cell_4_1 cell_4_2 cell_4_3 cell_4_4 cell_4_5 cell_4_6 cell_4_7 cell_4_8 cell_4_9) true))
(assert
 (and (distinct cell_5_1 cell_5_2 cell_5_3 cell_5_4 cell_5_5 cell_5_6 cell_5_7 cell_5_8 cell_5_9) true))
(assert
 (and (distinct cell_6_1 cell_6_2 cell_6_3 cell_6_4 cell_6_5 cell_6_6 cell_6_7 cell_6_8 cell_6_9) true))
(assert
 (and (distinct cell_7_1 cell_7_2 cell_7_3 cell_7_4 cell_7_5 cell_7_6 cell_7_7 cell_7_8 cell_7_9) true))
(assert
 (and (distinct cell_8_1 cell_8_2 cell_8_3 cell_8_4 cell_8_5 cell_8_6 cell_8_7 cell_8_8 cell_8_9) true))
(assert
 (and (distinct cell_9_1 cell_9_2 cell_9_3 cell_9_4 cell_9_5 cell_9_6 cell_9_7 cell_9_8 cell_9_9) true))
(assert
 (and (distinct cell_1_1 cell_2_1 cell_3_1 cell_4_1 cell_5_1 cell_6_1 cell_7_1 cell_8_1 cell_9_1) true))
(assert
 (and (distinct cell_1_2 cell_2_2 cell_3_2 cell_4_2 cell_5_2 cell_6_2 cell_7_2 cell_8_2 cell_9_2) true))
(assert
 (and (distinct cell_1_3 cell_2_3 cell_3_3 cell_4_3 cell_5_3 cell_6_3 cell_7_3 cell_8_3 cell_9_3) true))
(assert
 (and (distinct cell_1_4 cell_2_4 cell_3_4 cell_4_4 cell_5_4 cell_6_4 cell_7_4 cell_8_4 cell_9_4) true))
(assert
 (and (distinct cell_1_5 cell_2_5 cell_3_5 cell_4_5 cell_5_5 cell_6_5 cell_7_5 cell_8_5 cell_9_5) true))
(assert
 (and (distinct cell_1_6 cell_2_6 cell_3_6 cell_4_6 cell_5_6 cell_6_6 cell_7_6 cell_8_6 cell_9_6) true))
(assert
 (and (distinct cell_1_7 cell_2_7 cell_3_7 cell_4_7 cell_5_7 cell_6_7 cell_7_7 cell_8_7 cell_9_7) true))
(assert
 (and (distinct cell_1_8 cell_2_8 cell_3_8 cell_4_8 cell_5_8 cell_6_8 cell_7_8 cell_8_8 cell_9_8) true))
(assert
 (and (distinct cell_1_9 cell_2_9 cell_3_9 cell_4_9 cell_5_9 cell_6_9 cell_7_9 cell_8_9 cell_9_9) true))
(assert
 (and (distinct cell_1_1 cell_1_2 cell_1_3 cell_2_1 cell_2_2 cell_2_3 cell_3_1 cell_3_2 cell_3_3) true))
(assert
 (and (distinct cell_1_4 cell_1_5 cell_1_6 cell_2_4 cell_2_5 cell_2_6 cell_3_4 cell_3_5 cell_3_6) true))
(assert
 (and (distinct cell_1_7 cell_1_8 cell_1_9 cell_2_7 cell_2_8 cell_2_9 cell_3_7 cell_3_8 cell_3_9) true))
(assert
 (and (distinct cell_4_1 cell_4_2 cell_4_3 cell_5_1 cell_5_2 cell_5_3 cell_6_1 cell_6_2 cell_6_3) true))
(assert
 (and (distinct cell_4_4 cell_4_5 cell_4_6 cell_5_4 cell_5_5 cell_5_6 cell_6_4 cell_6_5 cell_6_6) true))
(assert
 (and (distinct cell_4_7 cell_4_8 cell_4_9 cell_5_7 cell_5_8 cell_5_9 cell_6_7 cell_6_8 cell_6_9) true))
(assert
 (and (distinct cell_7_1 cell_7_2 cell_7_3 cell_8_1 cell_8_2 cell_8_3 cell_9_1 cell_9_2 cell_9_3) true))
(assert
 (and (distinct cell_7_4 cell_7_5 cell_7_6 cell_8_4 cell_8_5 cell_8_6 cell_9_4 cell_9_5 cell_9_6) true))
(assert
 (and (distinct cell_7_7 cell_7_8 cell_7_9 cell_8_7 cell_8_8 cell_8_9 cell_9_7 cell_9_8 cell_9_9) true))
(assert
 (let (($x2269 (and (distinct cell_5_9 cell_6_8 cell_7_7 cell_8_6) true)))
 (let (($x6420 (and (distinct cell_2_9 cell_3_8 cell_4_7 cell_5_6 cell_6_5 cell_7_4 cell_8_3 cell_9_2) true)))
 (let (($x10139 (and (distinct cell_1_8 cell_2_7 cell_3_6 cell_4_5 cell_5_4 cell_6_3 cell_7_2 cell_8_1) true)))
 (let (($x5075 (and (distinct cell_1_5 cell_2_4 cell_3_3 cell_4_2) true)))
 (let (($x6259 (and (distinct cell_5_1 cell_6_2 cell_7_3 cell_8_4) true)))
 (let (($x4201 (and (distinct cell_2_1 cell_3_2 cell_4_3 cell_5_4 cell_6_5 cell_7_6 cell_8_7 cell_9_8) true)))
 (let (($x8239 (and (distinct cell_1_2 cell_2_3 cell_3_4 cell_4_5 cell_5_6 cell_6_7 cell_7_8 cell_8_9) true)))
 (let (($x1693 (and (distinct cell_1_5 cell_2_6 cell_3_7 cell_4_8) true)))
 (and $x1693 $x8239 $x4201 $x6259 $x5075 $x10139 $x6420 $x2269))))))))))
(assert
 (= cell_1_1 1))
(assert
 (= cell_2_4 1))
(assert
 (= cell_3_9 1))
(assert
 (= cell_4_5 1))
(assert
 (= cell_5_3 1))
(assert
 (= cell_6_8 1))
(assert
 (= cell_7_6 1))
(assert
 (= cell_8_2 1))
(assert
 (= cell_9_7 1))
(assert
 (= cell_1_9 2))
(assert
 (= cell_2_1 2))
(assert
 (= cell_3_6 2))
(assert
 (= cell_4_7 2))
(assert
 (= cell_5_2 2))
(assert
 (= cell_6_4 2))
(assert
 (= cell_7_8 2))
(assert
 (= cell_8_5 2))
(assert
 (= cell_9_3 2))
(assert
 (= cell_1_4 3))
(assert
 (= cell_2_9 3))
(check-sat)

